Solver command line: ['/usr/local/bin/gurobi.sh']

Set parameter WLSAccessID
Set parameter WLSSecret
Set parameter LicenseID to value 2606900
Academic license 2606900 - for non-commercial use only - registered to so___@htwk-leipzig.de
Read LP format model from file /var/folders/jf/5sh4zzv94dxbcz8g7tg2jq5h0000gn/T/tmpc62s2z0w.pyomo.lp
Reading time = 2.11 seconds
objective: 970608 rows, 878399 columns, 2191566 nonzeros
Set parameter MIPGap to value 0.02
Gurobi Optimizer version 12.0.1 build v12.0.1rc0 (mac64[rosetta2] - Darwin 24.4.0 24E263)

CPU model: Apple M3
Thread count: 8 physical cores, 8 logical processors, using up to 8 threads

Non-default parameters:
MIPGap  0.02

Academic license 2606900 - for non-commercial use only - registered to so___@htwk-leipzig.de
Optimize a model with 970608 rows, 878399 columns and 2191566 nonzeros
Model fingerprint: 0x38bd449e
Model has 8783 quadratic constraints
Variable types: 755424 continuous, 122975 integer (105408 binary)
Coefficient statistics:
  Matrix range     [7e-03, 2e+02]
  QMatrix range    [1e+00, 1e+00]
  Objective range  [1e-02, 1e+03]
  Bounds range     [1e+00, 3e+00]
  RHS range        [8e-05, 1e+04]
Presolve removed 776748 rows and 658182 columns
Presolve time: 0.46s
Presolved: 193860 rows, 220217 columns, 613513 nonzeros
Variable types: 145607 continuous, 74610 integer (65826 binary)
Performing another presolve...
Presolve removed 70280 rows and 70280 columns
Presolve time: 4.84s
Deterministic concurrent LP optimizer: primal and dual simplex
Showing primal log only...


Root simplex log...

Iteration    Objective       Primal Inf.    Dual Inf.      Time
       0    4.5110187e+07   7.163659e+06   7.114626e+13      6s
Concurrent spin time: 0.03s

Solved with dual simplex

Root simplex log...

Iteration    Objective       Primal Inf.    Dual Inf.      Time
   65768    1.4188112e+07   0.000000e+00   0.000000e+00      9s
Extra simplex iterations after uncrush: 1

Root relaxation: objective 1.418811e+07, 65768 iterations, 3.04 seconds (4.92 work units)
Total elapsed time = 9.16s (DegenMoves)

    Nodes    |    Current Node    |     Objective Bounds      |     Work
 Expl Unexpl |  Obj  Depth IntInf | Incumbent    BestBd   Gap | It/Node Time

     0     0 1.4188e+07    0  558          - 1.4188e+07      -     -   10s
H    0     0                    1.459047e+07 1.4188e+07  2.76%     -   11s
H    0     0                    1.457924e+07 1.4188e+07  2.68%     -   12s
     0     0 1.4199e+07    0  603 1.4579e+07 1.4199e+07  2.61%     -   13s
     0     0 1.4205e+07    0  549 1.4579e+07 1.4205e+07  2.57%     -   14s
     0     0 1.4205e+07    0  556 1.4579e+07 1.4205e+07  2.57%     -   14s
     0     0 1.4205e+07    0  556 1.4579e+07 1.4205e+07  2.57%     -   14s
     0     0 1.4209e+07    0  526 1.4579e+07 1.4209e+07  2.54%     -   14s
     0     0 1.4210e+07    0  480 1.4579e+07 1.4210e+07  2.53%     -   15s
     0     0 1.4210e+07    0  481 1.4579e+07 1.4210e+07  2.53%     -   15s
     0     0 1.4211e+07    0  478 1.4579e+07 1.4211e+07  2.53%     -   15s
     0     0 1.4211e+07    0  479 1.4579e+07 1.4211e+07  2.53%     -   15s
     0     0 1.4212e+07    0  479 1.4579e+07 1.4212e+07  2.52%     -   17s
H    0     0                    1.457444e+07 1.4212e+07  2.49%     -   18s
H    0     0                    1.457435e+07 1.4212e+07  2.49%     -   18s
H    0     0                    1.457429e+07 1.4212e+07  2.49%     -   18s
     0     0 1.4212e+07    0  477 1.4574e+07 1.4212e+07  2.49%     -   18s
     0     0 1.4212e+07    0  479 1.4574e+07 1.4212e+07  2.48%     -   18s
     0     0 1.4212e+07    0  481 1.4574e+07 1.4212e+07  2.48%     -   18s
H    0     0                    1.457089e+07 1.4212e+07  2.46%     -   19s
H    0     0                    1.456410e+07 1.4212e+07  2.42%     -   20s
H    0     0                    1.456352e+07 1.4212e+07  2.41%     -   20s
H    0     0                    1.456308e+07 1.4212e+07  2.41%     -   20s
     0     0 1.4212e+07    0  451 1.4563e+07 1.4212e+07  2.41%     -   20s
H    0     0                    1.455491e+07 1.4212e+07  2.35%     -   21s
H    0     0                    1.454902e+07 1.4212e+07  2.31%     -   21s
H    0     0                    1.454874e+07 1.4212e+07  2.31%     -   21s
H    0     0                    1.454868e+07 1.4212e+07  2.31%     -   21s
     0     0 1.4212e+07    0  465 1.4549e+07 1.4212e+07  2.31%     -   21s
H    0     0                    1.454822e+07 1.4212e+07  2.31%     -   21s
     0     0 1.4212e+07    0  467 1.4548e+07 1.4212e+07  2.31%     -   21s
     0     0 1.4212e+07    0  469 1.4548e+07 1.4212e+07  2.31%     -   21s
     0     0 1.4212e+07    0  457 1.4548e+07 1.4212e+07  2.31%     -   22s
H    0     0                    1.454468e+07 1.4212e+07  2.29%     -   23s
     0     0 1.4212e+07    0  470 1.4545e+07 1.4212e+07  2.29%     -   23s
     0     0 1.4212e+07    0  476 1.4545e+07 1.4212e+07  2.29%     -   23s
H    0     0                    1.453846e+07 1.4212e+07  2.24%     -   23s
H    0     0                    1.453639e+07 1.4212e+07  2.23%     -   23s
H    0     0                    1.453599e+07 1.4212e+07  2.23%     -   23s
H    0     0                    1.453577e+07 1.4212e+07  2.23%     -   23s
     0     0 1.4212e+07    0  474 1.4536e+07 1.4212e+07  2.23%     -   23s
H    0     0                    1.453175e+07 1.4212e+07  2.20%     -   24s
H    0     0                    1.453162e+07 1.4212e+07  2.20%     -   24s
     0     0 1.4212e+07    0  478 1.4532e+07 1.4212e+07  2.20%     -   25s
     0     0 1.4212e+07    0  477 1.4532e+07 1.4212e+07  2.20%     -   25s
     0     0 1.4212e+07    0  477 1.4532e+07 1.4212e+07  2.20%     -   25s
     0     0 1.4212e+07    0  380 1.4532e+07 1.4212e+07  2.20%     -   27s
     0     2 1.4212e+07    0  369 1.4532e+07 1.4212e+07  2.20%     -   28s
    23    56 1.4212e+07    5  422 1.4532e+07 1.4212e+07  2.20%  87.3   30s
H   26    56                    1.451720e+07 1.4212e+07  2.10%  77.3   30s
H  140   395                    1.451698e+07 1.4212e+07  2.10%  16.6   35s
H  205   395                    1.451114e+07 1.4212e+07  2.06%  11.9   35s
H  738   751                    1.450560e+07 1.4212e+07  2.02%   4.8   42s
H  747   751                    1.449972e+07 1.4212e+07  1.98%   4.8   42s

Cutting planes:
  Learned: 40
  Gomory: 181
  Cover: 345
  Implied bound: 152
  Clique: 1
  MIR: 751
  Flow cover: 405
  Network: 1
  RLT: 18
  Relax-and-lift: 123

Explored 750 nodes (82492 simplex iterations) in 42.99 seconds (60.56 work units)
Thread count was 8 (of 8 available processors)

Solution count 10: 1.44997e+07 1.45056e+07 1.45111e+07 ... 1.45364e+07

Optimal solution found (tolerance 2.00e-02)
Best objective 1.449971555775e+07, best bound 1.421244003985e+07, gap 1.9812%

